p cnf 303 2224
124 127 134 156 251 0
84 108 139 147 152 186 0
72 120 122 254 0
67 115 116 129 0
63 112 0
60 104 145 0
103 141 298 0
99 146 160 163 181 0
118 164 166 168 170 0
171 174 176 179 0
180 192 267 0
43 158 0
131 206 0
109 222 288 0
188 195 229 0
205 235 292 0
172 175 209 0
91 92 94 96 97 191 0
85 87 88 125 0
128 135 140 148 0
76 80 82 100 0
69 70 71 74 119 0
65 66 117 130 0
61 62 64 113 142 185 193 0
57 58 59 105 136 200 0
48 49 50 53 54 55 204 0
47 98 0
46 95 183 0
44 45 86 89 123 0
42 107 132 138 0
78 150 154 0
39 114 126 177 0
110 189 211 213 0
197 214 215 0
216 219 221 0
224 226 227 228 231 232 0
234 238 240 241 0
173 243 244 245 246 247 0
210 248 249 0
149 153 157 0
75 77 81 101 250 0
68 73 133 252 0
83 151 155 253 0
121 143 187 255 0
56 201 0
161 257 258 260 0
167 262 263 0
182 184 264 0
90 165 265 0
266 268 0
269 270 272 275 0
41 277 279 0
111 178 212 280 281 0
159 190 196 282 0
137 199 283 284 285 0
207 217 220 287 289 290 0
230 233 236 239 291 293 0
-124 -139 0
-124 -202 0
-51 -124 0
-124 -298 0
-139 -202 0
-51 -139 0
-139 -298 0
-51 -202 0
-202 -298 0
-51 -298 0
-118 -146 0
-43 -146 0
-79 -146 0
-131 -146 0
-43 -118 0
-79 -118 0
-118 -131 0
-43 -79 0
-43 -131 0
-79 -131 0
-88 -191 0
-119 -191 0
-117 -191 0
-113 -191 0
-105 -191 0
-191 -204 0
-88 -119 0
-88 -117 0
-88 -113 0
-88 -105 0
-88 -204 0
-117 -119 0
-113 -119 0
-105 -119 0
-119 -204 0
-113 -117 0
-105 -117 0
-117 -204 0
-105 -113 0
-113 -204 0
-105 -204 0
-47 -294 0
-294 -295 0
-183 -294 0
-89 -294 0
-132 -294 0
-150 -294 0
-47 -295 0
-47 -183 0
-47 -89 0
-47 -132 0
-47 -150 0
-183 -295 0
-89 -295 0
-132 -295 0
-150 -295 0
-89 -183 0
-132 -183 0
-150 -183 0
-89 -132 0
-89 -150 0
-132 -150 0
-114 -296 0
-203 -296 0
-216 -296 0
-224 -296 0
-234 -296 0
-243 -296 0
-114 -203 0
-114 -216 0
-114 -224 0
-114 -234 0
-114 -243 0
-203 -216 0
-203 -224 0
-203 -234 0
-203 -243 0
-216 -224 0
-216 -234 0
-216 -243 0
-224 -234 0
-224 -243 0
-234 -243 0
-81 -157 0
-73 -157 0
-155 -157 0
-157 -187 0
-73 -81 0
-81 -155 0
-81 -187 0
-73 -155 0
-73 -187 0
-155 -187 0
-159 -199 0
-159 -207 0
-159 -223 0
-159 -230 0
-199 -207 0
-199 -223 0
-199 -230 0
-207 -223 0
-207 -230 0
-223 -230 0
-124 -146 0
-124 -191 0
-124 -294 0
-124 -296 0
-146 -191 0
-146 -294 0
-146 -296 0
-191 -294 0
-191 -296 0
-294 -296 0
-118 -139 0
-88 -139 0
-47 -139 0
-114 -139 0
-88 -118 0
-47 -118 0
-114 -118 0
-47 -88 0
-88 -114 0
-47 -114 0
-119 -295 0
-119 -203 0
-119 -157 0
-119 -159 0
-203 -295 0
-157 -295 0
-159 -295 0
-157 -203 0
-159 -203 0
-157 -159 0
-117 -183 0
-117 -216 0
-81 -117 0
-117 -199 0
-183 -216 0
-81 -183 0
-183 -199 0
-81 -216 0
-199 -216 0
-81 -199 0
-43 -202 0
-113 -202 0
-89 -202 0
-202 -224 0
-73 -202 0
-202 -207 0
-43 -113 0
-43 -89 0
-43 -224 0
-43 -73 0
-43 -207 0
-89 -113 0
-113 -224 0
-73 -113 0
-113 -207 0
-89 -224 0
-73 -89 0
-89 -207 0
-73 -224 0
-207 -224 0
-73 -207 0
-51 -79 0
-51 -105 0
-51 -132 0
-51 -234 0
-51 -155 0
-51 -223 0
-79 -105 0
-79 -132 0
-79 -234 0
-79 -155 0
-79 -223 0
-105 -132 0
-105 -234 0
-105 -155 0
-105 -223 0
-132 -234 0
-132 -155 0
-132 -223 0
-155 -234 0
-223 -234 0
-155 -223 0
-131 -298 0
-204 -298 0
-150 -298 0
-243 -298 0
-187 -298 0
-230 -298 0
-131 -204 0
-131 -150 0
-131 -243 0
-131 -187 0
-131 -230 0
-150 -204 0
-204 -243 0
-187 -204 0
-204 -230 0
-150 -243 0
-150 -187 0
-150 -230 0
-187 -243 0
-230 -243 0
-187 -230 0
-99 -164 0
-99 -171 0
-164 -171 0
-87 -97 0
-97 -128 0
-55 -97 0
-87 -128 0
-55 -87 0
-55 -128 0
-126 -271 0
-110 -271 0
-244 -271 0
-110 -126 0
-126 -244 0
-110 -244 0
-210 -297 0
-93 -210 0
-77 -210 0
-93 -297 0
-77 -297 0
-77 -93 0
-52 -201 0
-106 -201 0
-201 -299 0
-52 -106 0
-52 -299 0
-106 -299 0
-97 -99 0
-99 -271 0
-99 -210 0
-99 -201 0
-97 -271 0
-97 -210 0
-97 -201 0
-210 -271 0
-201 -271 0
-201 -210 0
-87 -164 0
-126 -164 0
-164 -297 0
-52 -164 0
-87 -126 0
-87 -297 0
-52 -87 0
-126 -297 0
-52 -126 0
-52 -297 0
-128 -171 0
-110 -171 0
-93 -171 0
-106 -171 0
-110 -128 0
-93 -128 0
-106 -128 0
-93 -110 0
-106 -110 0
-93 -106 0
-77 -299 0
-55 -244 0
-160 -174 0
-96 -135 0
-74 -96 0
-64 -96 0
-54 -96 0
-74 -135 0
-64 -135 0
-54 -135 0
-64 -74 0
-54 -74 0
-54 -64 0
-162 -300 0
-300 -301 0
-86 -300 0
-154 -300 0
-162 -301 0
-86 -162 0
-154 -162 0
-86 -301 0
-154 -301 0
-86 -154 0
-211 -273 0
-273 -286 0
-226 -273 0
-245 -273 0
-211 -286 0
-211 -226 0
-211 -245 0
-226 -286 0
-245 -286 0
-226 -245 0
-287 -291 0
-96 -160 0
-160 -300 0
-160 -273 0
-96 -300 0
-96 -273 0
-273 -300 0
-135 -174 0
-162 -174 0
-174 -211 0
-135 -162 0
-135 -211 0
-162 -211 0
-74 -301 0
-74 -286 0
-286 -301 0
-64 -86 0
-64 -226 0
-64 -287 0
-86 -226 0
-86 -287 0
-226 -287 0
-54 -154 0
-54 -245 0
-54 -291 0
-154 -245 0
-154 -291 0
-245 -291 0
-147 -251 0
-251 -256 0
-251 -261 0
-147 -256 0
-147 -261 0
-256 -261 0
-188 -288 0
-242 -288 0
-172 -288 0
-188 -242 0
-172 -188 0
-172 -242 0
-85 -94 0
-82 -94 0
-66 -94 0
-62 -94 0
-59 -94 0
-82 -85 0
-66 -85 0
-62 -85 0
-59 -85 0
-66 -82 0
-62 -82 0
-59 -82 0
-62 -66 0
-59 -66 0
-59 -62 0
-98 -302 0
-169 -302 0
-95 -302 0
-123 -302 0
-138 -302 0
-98 -169 0
-95 -98 0
-98 -123 0
-98 -138 0
-95 -169 0
-123 -169 0
-138 -169 0
-95 -123 0
-95 -138 0
-123 -138 0
-39 -276 0
-214 -276 0
-219 -276 0
-227 -276 0
-238 -276 0
-39 -214 0
-39 -219 0
-39 -227 0
-39 -238 0
-214 -219 0
-214 -227 0
-214 -238 0
-219 -227 0
-219 -238 0
-227 -238 0
-280 -283 0
-251 -288 0
-94 -251 0
-251 -302 0
-251 -276 0
-94 -288 0
-288 -302 0
-276 -288 0
-94 -302 0
-94 -276 0
-276 -302 0
-147 -188 0
-85 -147 0
-98 -147 0
-39 -147 0
-85 -188 0
-98 -188 0
-39 -188 0
-85 -98 0
-39 -85 0
-39 -98 0
-82 -169 0
-82 -214 0
-82 -280 0
-169 -214 0
-169 -280 0
-214 -280 0
-66 -95 0
-66 -219 0
-66 -283 0
-95 -219 0
-95 -283 0
-219 -283 0
-242 -256 0
-62 -256 0
-123 -256 0
-227 -256 0
-62 -242 0
-123 -242 0
-227 -242 0
-62 -123 0
-62 -227 0
-123 -227 0
-172 -261 0
-59 -261 0
-138 -261 0
-238 -261 0
-59 -172 0
-138 -172 0
-172 -238 0
-59 -138 0
-59 -238 0
-138 -238 0
-108 -120 0
-108 -116 0
-108 -112 0
-104 -108 0
-116 -120 0
-112 -120 0
-104 -120 0
-112 -116 0
-104 -116 0
-104 -112 0
-195 -235 0
-195 -218 0
-195 -225 0
-195 -237 0
-218 -235 0
-225 -235 0
-235 -237 0
-218 -225 0
-218 -237 0
-225 -237 0
-71 -80 0
-80 -130 0
-80 -185 0
-53 -80 0
-71 -130 0
-71 -185 0
-53 -71 0
-130 -185 0
-53 -130 0
-53 -185 0
-197 -208 0
-197 -221 0
-197 -228 0
-197 -246 0
-208 -221 0
-208 -228 0
-208 -246 0
-221 -228 0
-221 -246 0
-228 -246 0
-38 -303 0
-37 -303 0
-149 -303 0
-250 -303 0
-252 -303 0
-143 -303 0
-37 -38 0
-38 -149 0
-38 -250 0
-38 -252 0
-38 -143 0
-37 -149 0
-37 -250 0
-37 -252 0
-37 -143 0
-149 -250 0
-149 -252 0
-143 -149 0
-250 -252 0
-143 -250 0
-143 -252 0
-35 -36 0
-36 -257 0
-36 -262 0
-34 -36 0
-36 -264 0
-33 -36 0
-35 -257 0
-35 -262 0
-34 -35 0
-35 -264 0
-33 -35 0
-257 -262 0
-34 -257 0
-257 -264 0
-33 -257 0
-34 -262 0
-262 -264 0
-33 -262 0
-34 -264 0
-33 -34 0
-33 -264 0
-269 -277 0
-178 -269 0
-190 -269 0
-269 -284 0
-269 -289 0
-233 -269 0
-178 -277 0
-190 -277 0
-277 -284 0
-277 -289 0
-233 -277 0
-178 -190 0
-178 -284 0
-178 -289 0
-178 -233 0
-190 -284 0
-190 -289 0
-190 -233 0
-284 -289 0
-233 -284 0
-233 -289 0
-108 -195 0
-108 -303 0
-36 -108 0
-108 -269 0
-195 -303 0
-36 -195 0
-195 -269 0
-36 -303 0
-269 -303 0
-36 -269 0
-120 -235 0
-38 -120 0
-35 -120 0
-120 -277 0
-38 -235 0
-35 -235 0
-235 -277 0
-35 -38 0
-38 -277 0
-35 -277 0
-116 -218 0
-80 -116 0
-116 -197 0
-37 -116 0
-116 -257 0
-116 -178 0
-80 -218 0
-197 -218 0
-37 -218 0
-218 -257 0
-178 -218 0
-80 -197 0
-37 -80 0
-80 -257 0
-80 -178 0
-37 -197 0
-197 -257 0
-178 -197 0
-37 -257 0
-37 -178 0
-178 -257 0
-112 -225 0
-71 -112 0
-112 -208 0
-112 -149 0
-112 -262 0
-112 -190 0
-71 -225 0
-208 -225 0
-149 -225 0
-225 -262 0
-190 -225 0
-71 -208 0
-71 -149 0
-71 -262 0
-71 -190 0
-149 -208 0
-208 -262 0
-190 -208 0
-149 -262 0
-149 -190 0
-190 -262 0
-104 -237 0
-104 -130 0
-104 -221 0
-104 -250 0
-34 -104 0
-104 -284 0
-130 -237 0
-221 -237 0
-237 -250 0
-34 -237 0
-237 -284 0
-130 -221 0
-130 -250 0
-34 -130 0
-130 -284 0
-221 -250 0
-34 -221 0
-221 -284 0
-34 -250 0
-250 -284 0
-34 -284 0
-185 -228 0
-185 -252 0
-185 -264 0
-185 -289 0
-228 -252 0
-228 -264 0
-228 -289 0
-252 -264 0
-252 -289 0
-264 -289 0
-53 -246 0
-53 -143 0
-33 -53 0
-53 -233 0
-143 -246 0
-33 -246 0
-233 -246 0
-33 -143 0
-143 -233 0
-33 -233 0
-127 -254 0
-127 -259 0
-32 -127 0
-103 -127 0
-254 -259 0
-32 -254 0
-103 -254 0
-32 -259 0
-103 -259 0
-32 -103 0
-109 -292 0
-31 -109 0
-109 -209 0
-30 -109 0
-31 -292 0
-209 -292 0
-30 -292 0
-31 -209 0
-30 -31 0
-30 -209 0
-92 -140 0
-76 -92 0
-70 -92 0
-92 -193 0
-92 -200 0
-50 -92 0
-76 -140 0
-70 -140 0
-140 -193 0
-140 -200 0
-50 -140 0
-70 -76 0
-76 -193 0
-76 -200 0
-50 -76 0
-70 -193 0
-70 -200 0
-50 -70 0
-193 -200 0
-50 -193 0
-50 -200 0
-28 -29 0
-27 -29 0
-26 -29 0
-29 -45 0
-29 -42 0
-29 -78 0
-27 -28 0
-26 -28 0
-28 -45 0
-28 -42 0
-28 -78 0
-26 -27 0
-27 -45 0
-27 -42 0
-27 -78 0
-26 -45 0
-26 -42 0
-26 -78 0
-42 -45 0
-45 -78 0
-42 -78 0
-25 -213 0
-25 -215 0
-24 -25 0
-25 -231 0
-25 -240 0
-25 -247 0
-213 -215 0
-24 -213 0
-213 -231 0
-213 -240 0
-213 -247 0
-24 -215 0
-215 -231 0
-215 -240 0
-215 -247 0
-24 -231 0
-24 -240 0
-24 -247 0
-231 -240 0
-231 -247 0
-240 -247 0
-258 -263 0
-184 -258 0
-90 -258 0
-23 -258 0
-184 -263 0
-90 -263 0
-23 -263 0
-90 -184 0
-23 -184 0
-23 -90 0
-196 -281 0
-217 -281 0
-194 -281 0
-236 -281 0
-196 -217 0
-194 -196 0
-196 -236 0
-194 -217 0
-217 -236 0
-194 -236 0
-109 -127 0
-92 -127 0
-29 -127 0
-25 -127 0
-92 -109 0
-29 -109 0
-25 -109 0
-29 -92 0
-25 -92 0
-25 -29 0
-254 -292 0
-140 -254 0
-28 -254 0
-213 -254 0
-140 -292 0
-28 -292 0
-213 -292 0
-28 -140 0
-140 -213 0
-28 -213 0
-27 -76 0
-76 -215 0
-76 -258 0
-76 -281 0
-27 -215 0
-27 -258 0
-27 -281 0
-215 -258 0
-215 -281 0
-258 -281 0
-26 -70 0
-24 -70 0
-70 -263 0
-70 -196 0
-24 -26 0
-26 -263 0
-26 -196 0
-24 -263 0
-24 -196 0
-196 -263 0
-31 -259 0
-193 -259 0
-45 -259 0
-231 -259 0
-184 -259 0
-217 -259 0
-31 -193 0
-31 -45 0
-31 -231 0
-31 -184 0
-31 -217 0
-45 -193 0
-193 -231 0
-184 -193 0
-193 -217 0
-45 -231 0
-45 -184 0
-45 -217 0
-184 -231 0
-217 -231 0
-184 -217 0
-32 -209 0
-32 -200 0
-32 -42 0
-32 -240 0
-32 -90 0
-32 -194 0
-200 -209 0
-42 -209 0
-209 -240 0
-90 -209 0
-194 -209 0
-42 -200 0
-200 -240 0
-90 -200 0
-194 -200 0
-42 -240 0
-42 -90 0
-42 -194 0
-90 -240 0
-194 -240 0
-90 -194 0
-30 -103 0
-50 -103 0
-78 -103 0
-103 -247 0
-23 -103 0
-103 -236 0
-30 -50 0
-30 -78 0
-30 -247 0
-23 -30 0
-30 -236 0
-50 -78 0
-50 -247 0
-23 -50 0
-50 -236 0
-78 -247 0
-23 -78 0
-78 -236 0
-23 -247 0
-236 -247 0
-23 -236 0
-134 -152 0
-115 -134 0
-134 -145 0
-115 -152 0
-145 -152 0
-115 -145 0
-166 -181 0
-180 -181 0
-181 -278 0
-166 -180 0
-166 -278 0
-180 -278 0
-49 -136 0
-22 -248 0
-21 -248 0
-101 -248 0
-248 -253 0
-248 -255 0
-21 -22 0
-22 -101 0
-22 -253 0
-22 -255 0
-21 -101 0
-21 -253 0
-21 -255 0
-101 -253 0
-101 -255 0
-253 -255 0
-20 -56 0
-56 -260 0
-56 -102 0
-56 -265 0
-19 -56 0
-20 -260 0
-20 -102 0
-20 -265 0
-19 -20 0
-102 -260 0
-260 -265 0
-19 -260 0
-102 -265 0
-19 -102 0
-19 -265 0
-266 -270 0
-111 -266 0
-137 -266 0
-18 -266 0
-266 -293 0
-111 -270 0
-137 -270 0
-18 -270 0
-270 -293 0
-111 -137 0
-18 -111 0
-111 -293 0
-18 -137 0
-137 -293 0
-18 -293 0
-134 -181 0
-134 -248 0
-56 -134 0
-134 -266 0
-181 -248 0
-56 -181 0
-181 -266 0
-56 -248 0
-248 -266 0
-56 -266 0
-152 -166 0
-22 -152 0
-20 -152 0
-152 -270 0
-22 -166 0
-20 -166 0
-166 -270 0
-20 -22 0
-22 -270 0
-20 -270 0
-115 -180 0
-21 -115 0
-115 -260 0
-111 -115 0
-21 -180 0
-180 -260 0
-111 -180 0
-21 -260 0
-21 -111 0
-111 -260 0
-145 -278 0
-101 -145 0
-102 -145 0
-137 -145 0
-101 -278 0
-102 -278 0
-137 -278 0
-101 -102 0
-101 -137 0
-102 -137 0
-136 -253 0
-136 -265 0
-18 -136 0
-253 -265 0
-18 -253 0
-18 -265 0
-49 -255 0
-19 -49 0
-49 -293 0
-19 -255 0
-255 -293 0
-19 -293 0
-84 -122 0
-67 -84 0
-63 -84 0
-60 -84 0
-67 -122 0
-63 -122 0
-60 -122 0
-63 -67 0
-60 -67 0
-60 -63 0
-168 -176 0
-168 -267 0
-168 -274 0
-40 -168 0
-176 -267 0
-176 -274 0
-40 -176 0
-267 -274 0
-40 -267 0
-40 -274 0
-69 -100 0
-65 -100 0
-61 -100 0
-58 -100 0
-65 -69 0
-61 -69 0
-58 -69 0
-61 -65 0
-58 -65 0
-58 -61 0
-16 -17 0
-17 -46 0
-17 -44 0
-17 -107 0
-16 -46 0
-16 -44 0
-16 -107 0
-44 -46 0
-46 -107 0
-44 -107 0
-14 -15 0
-13 -15 0
-15 -153 0
-15 -75 0
-15 -133 0
-15 -151 0
-13 -14 0
-14 -153 0
-14 -75 0
-14 -133 0
-14 -151 0
-13 -153 0
-13 -75 0
-13 -133 0
-13 -151 0
-75 -153 0
-133 -153 0
-151 -153 0
-75 -133 0
-75 -151 0
-133 -151 0
-12 -144 0
-12 -161 0
-12 -167 0
-11 -12 0
-12 -182 0
-12 -165 0
-144 -161 0
-144 -167 0
-11 -144 0
-144 -182 0
-144 -165 0
-161 -167 0
-11 -161 0
-161 -182 0
-161 -165 0
-11 -167 0
-167 -182 0
-165 -167 0
-11 -182 0
-11 -165 0
-165 -182 0
-272 -279 0
-212 -272 0
-272 -282 0
-272 -285 0
-272 -290 0
-10 -272 0
-212 -279 0
-279 -282 0
-279 -285 0
-279 -290 0
-10 -279 0
-212 -282 0
-212 -285 0
-212 -290 0
-10 -212 0
-282 -285 0
-282 -290 0
-10 -282 0
-285 -290 0
-10 -285 0
-10 -290 0
-84 -168 0
-15 -84 0
-12 -84 0
-84 -272 0
-15 -168 0
-12 -168 0
-168 -272 0
-12 -15 0
-15 -272 0
-12 -272 0
-122 -176 0
-14 -122 0
-122 -144 0
-122 -279 0
-14 -176 0
-144 -176 0
-176 -279 0
-14 -144 0
-14 -279 0
-144 -279 0
-67 -267 0
-67 -100 0
-17 -67 0
-13 -67 0
-67 -161 0
-67 -212 0
-100 -267 0
-17 -267 0
-13 -267 0
-161 -267 0
-212 -267 0
-17 -100 0
-13 -100 0
-100 -161 0
-100 -212 0
-13 -17 0
-17 -161 0
-17 -212 0
-13 -161 0
-13 -212 0
-161 -212 0
-63 -274 0
-63 -69 0
-16 -63 0
-63 -153 0
-63 -167 0
-63 -282 0
-69 -274 0
-16 -274 0
-153 -274 0
-167 -274 0
-274 -282 0
-16 -69 0
-69 -153 0
-69 -167 0
-69 -282 0
-16 -153 0
-16 -167 0
-16 -282 0
-153 -167 0
-153 -282 0
-167 -282 0
-40 -60 0
-60 -65 0
-46 -60 0
-60 -75 0
-11 -60 0
-60 -285 0
-40 -65 0
-40 -46 0
-40 -75 0
-11 -40 0
-40 -285 0
-46 -65 0
-65 -75 0
-11 -65 0
-65 -285 0
-46 -75 0
-11 -46 0
-46 -285 0
-11 -75 0
-75 -285 0
-11 -285 0
-44 -61 0
-61 -133 0
-61 -182 0
-61 -290 0
-44 -133 0
-44 -182 0
-44 -290 0
-133 -182 0
-133 -290 0
-182 -290 0
-58 -107 0
-58 -151 0
-58 -165 0
-10 -58 0
-107 -151 0
-107 -165 0
-10 -107 0
-151 -165 0
-10 -151 0
-10 -165 0
-156 -186 0
-72 -156 0
-129 -156 0
-9 -156 0
-8 -156 0
-141 -156 0
-72 -186 0
-129 -186 0
-9 -186 0
-8 -186 0
-141 -186 0
-72 -129 0
-9 -72 0
-8 -72 0
-72 -141 0
-9 -129 0
-8 -129 0
-129 -141 0
-8 -9 0
-9 -141 0
-8 -141 0
-163 -170 0
-163 -179 0
-163 -192 0
-158 -163 0
-163 -198 0
-163 -206 0
-170 -179 0
-170 -192 0
-158 -170 0
-170 -198 0
-170 -206 0
-179 -192 0
-158 -179 0
-179 -198 0
-179 -206 0
-158 -192 0
-192 -198 0
-192 -206 0
-158 -198 0
-158 -206 0
-198 -206 0
-222 -229 0
-205 -222 0
-7 -222 0
-6 -222 0
-175 -222 0
-5 -222 0
-205 -229 0
-7 -229 0
-6 -229 0
-175 -229 0
-5 -229 0
-7 -205 0
-6 -205 0
-175 -205 0
-5 -205 0
-6 -7 0
-7 -175 0
-5 -7 0
-6 -175 0
-5 -6 0
-5 -175 0
-91 -125 0
-91 -148 0
-91 -142 0
-57 -91 0
-48 -91 0
-125 -148 0
-125 -142 0
-57 -125 0
-48 -125 0
-142 -148 0
-57 -148 0
-48 -148 0
-57 -142 0
-48 -142 0
-48 -57 0
-4 -177 0
-4 -189 0
-4 -232 0
-4 -241 0
-4 -173 0
-177 -189 0
-177 -232 0
-177 -241 0
-173 -177 0
-189 -232 0
-189 -241 0
-173 -189 0
-232 -241 0
-173 -232 0
-173 -241 0
-3 -249 0
-2 -249 0
-68 -249 0
-83 -249 0
-121 -249 0
-2 -3 0
-3 -68 0
-3 -83 0
-3 -121 0
-2 -68 0
-2 -83 0
-2 -121 0
-68 -83 0
-68 -121 0
-83 -121 0
-268 -275 0
-41 -268 0
-220 -268 0
-1 -268 0
-239 -268 0
-41 -275 0
-220 -275 0
-1 -275 0
-239 -275 0
-41 -220 0
-1 -41 0
-41 -239 0
-1 -220 0
-220 -239 0
-1 -239 0
-156 -163 0
-156 -222 0
-91 -156 0
-4 -156 0
-156 -249 0
-156 -268 0
-163 -222 0
-91 -163 0
-4 -163 0
-163 -249 0
-163 -268 0
-91 -222 0
-4 -222 0
-222 -249 0
-222 -268 0
-4 -91 0
-91 -249 0
-91 -268 0
-4 -249 0
-4 -268 0
-249 -268 0
-170 -186 0
-186 -229 0
-125 -186 0
-177 -186 0
-3 -186 0
-186 -275 0
-170 -229 0
-125 -170 0
-170 -177 0
-3 -170 0
-170 -275 0
-125 -229 0
-177 -229 0
-3 -229 0
-229 -275 0
-125 -177 0
-3 -125 0
-125 -275 0
-3 -177 0
-177 -275 0
-3 -275 0
-72 -179 0
-72 -205 0
-72 -148 0
-72 -189 0
-2 -72 0
-41 -72 0
-179 -205 0
-148 -179 0
-179 -189 0
-2 -179 0
-41 -179 0
-148 -205 0
-189 -205 0
-2 -205 0
-41 -205 0
-148 -189 0
-2 -148 0
-41 -148 0
-2 -189 0
-41 -189 0
-2 -41 0
-129 -192 0
-7 -129 0
-7 -192 0
-9 -158 0
-6 -9 0
-9 -142 0
-9 -232 0
-9 -68 0
-9 -220 0
-6 -158 0
-142 -158 0
-158 -232 0
-68 -158 0
-158 -220 0
-6 -142 0
-6 -232 0
-6 -68 0
-6 -220 0
-142 -232 0
-68 -142 0
-142 -220 0
-68 -232 0
-220 -232 0
-68 -220 0
-8 -198 0
-8 -175 0
-8 -57 0
-8 -241 0
-8 -83 0
-1 -8 0
-175 -198 0
-57 -198 0
-198 -241 0
-83 -198 0
-1 -198 0
-57 -175 0
-175 -241 0
-83 -175 0
-1 -175 0
-57 -241 0
-57 -83 0
-1 -57 0
-83 -241 0
-1 -241 0
-1 -83 0
-141 -206 0
-5 -141 0
-48 -141 0
-141 -173 0
-121 -141 0
-141 -239 0
-5 -206 0
-48 -206 0
-173 -206 0
-121 -206 0
-206 -239 0
-5 -48 0
-5 -173 0
-5 -121 0
-5 -239 0
-48 -173 0
-48 -121 0
-48 -239 0
-121 -173 0
-173 -239 0
-121 -239 0
-124 -139 0
-124 -146 0
-118 -124 0
-139 -146 0
-118 -139 0
-118 -146 0
-99 -164 0
-99 -171 0
-164 -171 0
-160 -174 0
-147 -251 0
-251 -288 0
-188 -251 0
-147 -288 0
-147 -188 0
-188 -288 0
-108 -120 0
-108 -195 0
-108 -235 0
-120 -195 0
-120 -235 0
-195 -235 0
-127 -254 0
-109 -127 0
-127 -292 0
-109 -254 0
-254 -292 0
-109 -292 0
-134 -152 0
-134 -181 0
-134 -166 0
-152 -181 0
-152 -166 0
-166 -181 0
-84 -122 0
-84 -168 0
-84 -176 0
-122 -168 0
-122 -176 0
-168 -176 0
-156 -186 0
-72 -156 0
-156 -163 0
-156 -170 0
-156 -179 0
-156 -222 0
-156 -229 0
-156 -205 0
-72 -186 0
-163 -186 0
-170 -186 0
-179 -186 0
-186 -222 0
-186 -229 0
-186 -205 0
-72 -163 0
-72 -170 0
-72 -179 0
-72 -222 0
-72 -229 0
-72 -205 0
-163 -170 0
-163 -179 0
-163 -222 0
-163 -229 0
-163 -205 0
-170 -179 0
-170 -222 0
-170 -229 0
-170 -205 0
-179 -222 0
-179 -229 0
-179 -205 0
-222 -229 0
-205 -222 0
-205 -229 0
-112 -116 0
-104 -116 0
-116 -218 0
-116 -225 0
-116 -237 0
-104 -112 0
-112 -218 0
-112 -225 0
-112 -237 0
-104 -218 0
-104 -225 0
-104 -237 0
-218 -225 0
-218 -237 0
-225 -237 0
-115 -145 0
-115 -180 0
-115 -278 0
-145 -180 0
-145 -278 0
-180 -278 0
-63 -67 0
-60 -67 0
-67 -267 0
-67 -274 0
-40 -67 0
-60 -63 0
-63 -267 0
-63 -274 0
-40 -63 0
-60 -267 0
-60 -274 0
-40 -60 0
-267 -274 0
-40 -267 0
-40 -274 0
-129 -192 0
-7 -129 0
-7 -192 0
-51 -202 0
-202 -298 0
-43 -202 0
-79 -202 0
-131 -202 0
-51 -298 0
-43 -51 0
-51 -79 0
-51 -131 0
-43 -298 0
-79 -298 0
-131 -298 0
-43 -79 0
-43 -131 0
-79 -131 0
-256 -261 0
-242 -256 0
-172 -256 0
-242 -261 0
-172 -261 0
-172 -242 0
-32 -259 0
-103 -259 0
-31 -259 0
-209 -259 0
-30 -259 0
-32 -103 0
-31 -32 0
-32 -209 0
-30 -32 0
-31 -103 0
-103 -209 0
-30 -103 0
-31 -209 0
-30 -31 0
-30 -209 0
-8 -9 0
-9 -141 0
-9 -158 0
-9 -198 0
-9 -206 0
-6 -9 0
-9 -175 0
-5 -9 0
-8 -141 0
-8 -158 0
-8 -198 0
-8 -206 0
-6 -8 0
-8 -175 0
-5 -8 0
-141 -158 0
-141 -198 0
-141 -206 0
-6 -141 0
-141 -175 0
-5 -141 0
-158 -198 0
-158 -206 0
-6 -158 0
-158 -175 0
-5 -158 0
-198 -206 0
-6 -198 0
-175 -198 0
-5 -198 0
-6 -206 0
-175 -206 0
-5 -206 0
-6 -175 0
-5 -6 0
-5 -175 0
-88 -191 0
-191 -294 0
-47 -191 0
-191 -296 0
-114 -191 0
-88 -294 0
-47 -88 0
-88 -296 0
-88 -114 0
-47 -294 0
-294 -296 0
-114 -294 0
-47 -296 0
-47 -114 0
-114 -296 0
-87 -97 0
-97 -128 0
-97 -271 0
-97 -126 0
-97 -110 0
-87 -128 0
-87 -271 0
-87 -126 0
-87 -110 0
-128 -271 0
-126 -128 0
-110 -128 0
-126 -271 0
-110 -271 0
-110 -126 0
-96 -135 0
-96 -300 0
-96 -162 0
-96 -273 0
-96 -211 0
-135 -300 0
-135 -162 0
-135 -273 0
-135 -211 0
-162 -300 0
-273 -300 0
-211 -300 0
-162 -273 0
-162 -211 0
-211 -273 0
-85 -94 0
-94 -302 0
-94 -98 0
-94 -276 0
-39 -94 0
-85 -302 0
-85 -98 0
-85 -276 0
-39 -85 0
-98 -302 0
-276 -302 0
-39 -302 0
-98 -276 0
-39 -98 0
-39 -276 0
-92 -140 0
-29 -92 0
-28 -92 0
-25 -92 0
-92 -213 0
-29 -140 0
-28 -140 0
-25 -140 0
-140 -213 0
-28 -29 0
-25 -29 0
-29 -213 0
-25 -28 0
-28 -213 0
-25 -213 0
-91 -125 0
-91 -148 0
-4 -91 0
-91 -177 0
-91 -189 0
-125 -148 0
-4 -125 0
-125 -177 0
-125 -189 0
-4 -148 0
-148 -177 0
-148 -189 0
-4 -177 0
-4 -189 0
-177 -189 0
-117 -119 0
-119 -295 0
-119 -183 0
-119 -203 0
-119 -216 0
-117 -295 0
-117 -183 0
-117 -203 0
-117 -216 0
-183 -295 0
-203 -295 0
-216 -295 0
-183 -203 0
-183 -216 0
-203 -216 0
-74 -301 0
-74 -286 0
-286 -301 0
-66 -82 0
-82 -169 0
-82 -95 0
-82 -214 0
-82 -219 0
-66 -169 0
-66 -95 0
-66 -214 0
-66 -219 0
-95 -169 0
-169 -214 0
-169 -219 0
-95 -214 0
-95 -219 0
-214 -219 0
-71 -80 0
-80 -130 0
-80 -197 0
-80 -208 0
-80 -221 0
-71 -130 0
-71 -197 0
-71 -208 0
-71 -221 0
-130 -197 0
-130 -208 0
-130 -221 0
-197 -208 0
-197 -221 0
-208 -221 0
-70 -76 0
-27 -76 0
-26 -76 0
-76 -215 0
-24 -76 0
-27 -70 0
-26 -70 0
-70 -215 0
-24 -70 0
-26 -27 0
-27 -215 0
-24 -27 0
-26 -215 0
-24 -26 0
-24 -215 0
-69 -100 0
-65 -100 0
-17 -100 0
-16 -100 0
-46 -100 0
-65 -69 0
-17 -69 0
-16 -69 0
-46 -69 0
-17 -65 0
-16 -65 0
-46 -65 0
-16 -17 0
-17 -46 0
-16 -46 0
-105 -113 0
-113 -204 0
-89 -113 0
-113 -132 0
-113 -150 0
-113 -224 0
-113 -234 0
-113 -243 0
-105 -204 0
-89 -105 0
-105 -132 0
-105 -150 0
-105 -224 0
-105 -234 0
-105 -243 0
-89 -204 0
-132 -204 0
-150 -204 0
-204 -224 0
-204 -234 0
-204 -243 0
-89 -132 0
-89 -150 0
-89 -224 0
-89 -234 0
-89 -243 0
-132 -150 0
-132 -224 0
-132 -234 0
-132 -243 0
-150 -224 0
-150 -234 0
-150 -243 0
-224 -234 0
-224 -243 0
-234 -243 0
-55 -244 0
-54 -64 0
-64 -86 0
-64 -154 0
-64 -226 0
-64 -245 0
-54 -86 0
-54 -154 0
-54 -226 0
-54 -245 0
-86 -154 0
-86 -226 0
-86 -245 0
-154 -226 0
-154 -245 0
-226 -245 0
-59 -62 0
-62 -123 0
-62 -138 0
-62 -227 0
-62 -238 0
-59 -123 0
-59 -138 0
-59 -227 0
-59 -238 0
-123 -138 0
-123 -227 0
-123 -238 0
-138 -227 0
-138 -238 0
-227 -238 0
-53 -185 0
-185 -228 0
-185 -246 0
-53 -228 0
-53 -246 0
-228 -246 0
-193 -200 0
-50 -193 0
-45 -193 0
-42 -193 0
-78 -193 0
-193 -231 0
-193 -240 0
-193 -247 0
-50 -200 0
-45 -200 0
-42 -200 0
-78 -200 0
-200 -231 0
-200 -240 0
-200 -247 0
-45 -50 0
-42 -50 0
-50 -78 0
-50 -231 0
-50 -240 0
-50 -247 0
-42 -45 0
-45 -78 0
-45 -231 0
-45 -240 0
-45 -247 0
-42 -78 0
-42 -231 0
-42 -240 0
-42 -247 0
-78 -231 0
-78 -240 0
-78 -247 0
-231 -240 0
-231 -247 0
-240 -247 0
-49 -136 0
-58 -61 0
-44 -61 0
-61 -107 0
-44 -58 0
-58 -107 0
-44 -107 0
-57 -142 0
-48 -142 0
-142 -232 0
-142 -241 0
-142 -173 0
-48 -57 0
-57 -232 0
-57 -241 0
-57 -173 0
-48 -232 0
-48 -241 0
-48 -173 0
-232 -241 0
-173 -232 0
-173 -241 0
-210 -297 0
-93 -210 0
-201 -210 0
-52 -210 0
-106 -210 0
-93 -297 0
-201 -297 0
-52 -297 0
-106 -297 0
-93 -201 0
-52 -93 0
-93 -106 0
-52 -201 0
-106 -201 0
-52 -106 0
-38 -303 0
-36 -303 0
-35 -303 0
-269 -303 0
-277 -303 0
-36 -38 0
-35 -38 0
-38 -269 0
-38 -277 0
-35 -36 0
-36 -269 0
-36 -277 0
-35 -269 0
-35 -277 0
-269 -277 0
-22 -248 0
-56 -248 0
-20 -248 0
-248 -266 0
-248 -270 0
-22 -56 0
-20 -22 0
-22 -266 0
-22 -270 0
-20 -56 0
-56 -266 0
-56 -270 0
-20 -266 0
-20 -270 0
-266 -270 0
-14 -15 0
-12 -15 0
-15 -144 0
-15 -272 0
-15 -279 0
-12 -14 0
-14 -144 0
-14 -272 0
-14 -279 0
-12 -144 0
-12 -272 0
-12 -279 0
-144 -272 0
-144 -279 0
-272 -279 0
-3 -249 0
-2 -249 0
-249 -268 0
-249 -275 0
-41 -249 0
-2 -3 0
-3 -268 0
-3 -275 0
-3 -41 0
-2 -268 0
-2 -275 0
-2 -41 0
-268 -275 0
-41 -268 0
-41 -275 0
-81 -157 0
-157 -159 0
-157 -199 0
-81 -159 0
-81 -199 0
-159 -199 0
-77 -299 0
-280 -283 0
-37 -149 0
-37 -250 0
-37 -257 0
-37 -262 0
-34 -37 0
-37 -178 0
-37 -190 0
-37 -284 0
-149 -250 0
-149 -257 0
-149 -262 0
-34 -149 0
-149 -178 0
-149 -190 0
-149 -284 0
-250 -257 0
-250 -262 0
-34 -250 0
-178 -250 0
-190 -250 0
-250 -284 0
-257 -262 0
-34 -257 0
-178 -257 0
-190 -257 0
-257 -284 0
-34 -262 0
-178 -262 0
-190 -262 0
-262 -284 0
-34 -178 0
-34 -190 0
-34 -284 0
-178 -190 0
-178 -284 0
-190 -284 0
-258 -263 0
-258 -281 0
-196 -258 0
-263 -281 0
-196 -263 0
-196 -281 0
-21 -101 0
-21 -260 0
-21 -102 0
-21 -111 0
-21 -137 0
-101 -260 0
-101 -102 0
-101 -111 0
-101 -137 0
-102 -260 0
-111 -260 0
-137 -260 0
-102 -111 0
-102 -137 0
-111 -137 0
-13 -153 0
-13 -75 0
-13 -161 0
-13 -167 0
-11 -13 0
-13 -212 0
-13 -282 0
-13 -285 0
-75 -153 0
-153 -161 0
-153 -167 0
-11 -153 0
-153 -212 0
-153 -282 0
-153 -285 0
-75 -161 0
-75 -167 0
-11 -75 0
-75 -212 0
-75 -282 0
-75 -285 0
-161 -167 0
-11 -161 0
-161 -212 0
-161 -282 0
-161 -285 0
-11 -167 0
-167 -212 0
-167 -282 0
-167 -285 0
-11 -212 0
-11 -282 0
-11 -285 0
-212 -282 0
-212 -285 0
-282 -285 0
-73 -155 0
-73 -187 0
-73 -207 0
-73 -223 0
-73 -230 0
-155 -187 0
-155 -207 0
-155 -223 0
-155 -230 0
-187 -207 0
-187 -223 0
-187 -230 0
-207 -223 0
-207 -230 0
-223 -230 0
-287 -291 0
-143 -252 0
-252 -264 0
-33 -252 0
-252 -289 0
-233 -252 0
-143 -264 0
-33 -143 0
-143 -289 0
-143 -233 0
-33 -264 0
-264 -289 0
-233 -264 0
-33 -289 0
-33 -233 0
-233 -289 0
-90 -184 0
-23 -184 0
-184 -217 0
-184 -194 0
-184 -236 0
-23 -90 0
-90 -217 0
-90 -194 0
-90 -236 0
-23 -217 0
-23 -194 0
-23 -236 0
-194 -217 0
-217 -236 0
-194 -236 0
-253 -255 0
-253 -265 0
-19 -253 0
-18 -253 0
-253 -293 0
-255 -265 0
-19 -255 0
-18 -255 0
-255 -293 0
-19 -265 0
-18 -265 0
-265 -293 0
-18 -19 0
-19 -293 0
-18 -293 0
-133 -151 0
-133 -182 0
-133 -165 0
-133 -290 0
-10 -133 0
-151 -182 0
-151 -165 0
-151 -290 0
-10 -151 0
-165 -182 0
-182 -290 0
-10 -182 0
-165 -290 0
-10 -165 0
-10 -290 0
-68 -83 0
-68 -121 0
-68 -220 0
-1 -68 0
-68 -239 0
-83 -121 0
-83 -220 0
-1 -83 0
-83 -239 0
-121 -220 0
-1 -121 0
-121 -239 0
-1 -220 0
-220 -239 0
-1 -239 0
